(set-info :smt-lib-version 2.6)
(set-logic QF_UFLRA)
(set-info :source |
MathSat group

|)
(set-info :category "random")
(set-info :status unsat)
(declare-fun x0 () Real)
(declare-fun x1 () Real)
(declare-fun x2 () Real)
(declare-fun x3 () Real)
(declare-fun x4 () Real)
(declare-fun x5 () Real)
(declare-fun x6 () Real)
(declare-fun x7 () Real)
(declare-fun x8 () Real)
(declare-fun x9 () Real)
(declare-fun x10 () Real)
(declare-fun x11 () Real)
(declare-fun x12 () Real)
(declare-fun x13 () Real)
(declare-fun x14 () Real)
(declare-fun x15 () Real)
(declare-fun x16 () Real)
(declare-fun x17 () Real)
(declare-fun x18 () Real)
(declare-fun x19 () Real)
(declare-fun x20 () Real)
(declare-fun x21 () Real)
(declare-fun x22 () Real)
(declare-fun x23 () Real)
(declare-fun x24 () Real)
(declare-fun x25 () Real)
(declare-fun x26 () Real)
(declare-fun x27 () Real)
(declare-fun x28 () Real)
(declare-fun x29 () Real)
(declare-fun f0_1 (Real) Real)
(declare-fun f0_2 (Real Real) Real)
(declare-fun f0_3 (Real Real Real) Real)
(declare-fun f0_4 (Real Real Real Real) Real)
(declare-fun P0 () Bool)
(declare-fun P1 () Bool)
(declare-fun P2 () Bool)
(declare-fun P3 () Bool)
(declare-fun P4 () Bool)
(declare-fun P5 () Bool)
(declare-fun P6 () Bool)
(declare-fun P7 () Bool)
(declare-fun P8 () Bool)
(declare-fun P9 () Bool)
(declare-fun P10 () Bool)
(declare-fun P11 () Bool)
(declare-fun P12 () Bool)
(declare-fun P13 () Bool)
(declare-fun P14 () Bool)
(declare-fun P15 () Bool)
(declare-fun P16 () Bool)
(declare-fun P17 () Bool)
(declare-fun P18 () Bool)
(declare-fun P19 () Bool)
(declare-fun P20 () Bool)
(declare-fun P21 () Bool)
(declare-fun P22 () Bool)
(declare-fun P23 () Bool)
(declare-fun P24 () Bool)
(declare-fun P25 () Bool)
(declare-fun P26 () Bool)
(declare-fun P27 () Bool)
(declare-fun P28 () Bool)
(declare-fun P29 () Bool)
(assert (let ((?v_117 (<= (- (- (* 13 x27) (* 34 x19)) (* 34 x10)) 38)) (?v_29 (< (+ (- (* 21 x21) (* 33 x18)) (* 26 x26)) 40)) (?v_6 (* 37 x12)) (?v_28 (distinct (+ (- (* 10 x24) (* 40 x15)) (* 36 x7)) 28)) (?v_74 (* 39 x14)) (?v_36 (< (- (+ (* 10 x17) (* 21 x25)) (* 26 x6)) 2)) (?v_72 (* 41 x14)) (?v_48 (* 8 x12))) (let ((?v_98 (< (+ (- (* 5 x7) ?v_48) (* 18 x19)) 7)) (?v_7 (distinct (f0_1 x16) x7)) (?v_43 (distinct x23 (f0_2 x23 x24))) (?v_46 (distinct (f0_2 x2 x17) (f0_2 x5 x18))) (?v_16 (f0_1 x28))) (let ((?v_3 (distinct x25 ?v_16)) (?v_18 (= (f0_1 x18) x29)) (?v_105 (distinct x28 x27)) (?v_40 (distinct (f0_2 x17 x9) x9)) (?v_42 (= (f0_1 x26) (f0_2 x11 x1))) (?v_63 (= x11 x14)) (?v_151 (= (f0_2 x2 x9) (f0_1 x14))) (?v_126 (= x12 (f0_2 x24 x5))) (?v_9 (f0_1 x22))) (let ((?v_14 (distinct (f0_2 x12 x17) ?v_9)) (?v_139 (distinct (f0_1 x7) (f0_1 x3))) (?v_149 (distinct (f0_1 x2) ?v_9)) (?v_0 (f0_1 x15))) (let ((?v_51 (= (f0_2 x6 x21) ?v_0)) (?v_143 (= (f0_2 x10 x8) (f0_2 x6 x23))) (?v_94 (distinct (f0_1 x25) x11)) (?v_13 (distinct ?v_9 (f0_1 x1))) (?v_2 (distinct (f0_2 x7 x19) (f0_2 x3 x1))) (?v_152 (distinct (f0_2 x29 x8) x8)) (?v_97 (= x0 (f0_2 x16 x14))) (?v_65 (= (f0_2 x20 x8) (f0_2 x1 x6))) (?v_62 (= x27 x25)) (?v_140 (= (f0_2 x20 x3) (f0_2 x7 x10))) (?v_56 (= (f0_2 x12 x23) ?v_0)) (?v_113 (= (f0_2 x4 x25) x4)) (?v_110 (= x27 (f0_1 x13))) (?v_44 (= ?v_16 (f0_2 x28 x7))) (?v_5 (= x7 x17)) (?v_67 (distinct (f0_2 x18 x15) (f0_1 x20)))) (let ((?v_31 (not ?v_5)) (?v_1 (not ?v_97)) (?v_118 (not ?v_43)) (?v_24 (not ?v_140)) (?v_30 (not ?v_3)) (?v_39 (not ?v_51)) (?v_12 (not ?v_56)) (?v_21 (not ?v_28)) (?v_47 (not P10)) (?v_25 (not P4)) (?v_38 (not ?v_2)) (?v_41 (not ?v_36)) (?v_109 (not ?v_126)) (?v_130 (not P15)) (?v_53 (not P9)) (?v_59 (not P25)) (?v_71 (not ?v_7)) (?v_10 (not ?v_13)) (?v_26 (not P18)) (?v_19 (not ?v_105)) (?v_52 (not ?v_14)) (?v_15 (not ?v_18)) (?v_96 (not ?v_139)) (?v_95 (not ?v_44)) (?v_138 (not P23)) (?v_112 (not P17)) (?v_27 (not P5)) (?v_35 (not ?v_65)) (?v_45 (not P6)) (?v_146 (not P28)) (?v_136 (not ?v_29)) (?v_135 (not P20)) (?v_50 (not P1)) (?v_60 (not ?v_42)) (?v_92 (not P16))) (let ((?v_54 (or ?v_27 ?v_44)) (?v_58 (not ?v_152)) (?v_101 (not ?v_46)) (?v_108 (not P29)) (?v_119 (not P22)) (?v_64 (not ?v_149)) (?v_57 (not ?v_113)) (?v_75 (not P21)) (?v_87 (not ?v_62)) (?v_89 (not ?v_63)) (?v_91 (not P13)) (?v_79 (not P14)) (?v_70 (not ?v_67)) (?v_77 (not P26)) (?v_125 (not ?v_40)) (?v_90 (not P7)) (?v_144 (not ?v_94)) (?v_141 (not P2)) (?v_114 (not ?v_98)) (?v_124 (not P8)) (?v_111 (not P24)) (?v_155 (not P19)) (?v_116 (not ?v_110)) (?v_145 (not ?v_117)) (?v_127 (not ?v_143)) (?v_128 (not ?v_151)) (?v_131 (not P11)) (?v_147 (not P0)) (?v_156 (not P3)) (?v_150 (not P12)) (?v_154 (not P27)) (?v_11 (<= (+ (* 42 x3) (* 12 x1)) 42))) (let ((?v_37 (not ?v_11)) (?v_107 (<= (* 38 x8) 6))) (let ((?v_33 (not ?v_107)) (?v_32 (distinct (+ (- (* (- 21) x10) ?v_74) (* 17 x25)) 4))) (let ((?v_133 (not ?v_32)) (?v_100 (<= (- (- (* (- 1) x11) (* 29 x26)) ?v_72) 38)) (?v_20 (<= (- (+ (* (- 41) x23) (* 4 x22)) (* 7 x18)) 21)) (?v_4 (<= (+ (* (- 15) x16) (* 37 x10) (* 7 x13)) (- 7))) (?v_132 (= (- (- (* (- 28) x5) ?v_6) (* 42 x27)) (- 31)))) (let ((?v_99 (not ?v_132)) (?v_8 (<= (- (- (* (- 1) x5) (* 6 x10)) (* 22 x20)) 4))) (let ((?v_22 (not ?v_8)) (?v_122 (< (+ (- (* (- 42) x5) (* 15 x21)) (* 28 x26)) (- 29)))) (let ((?v_81 (not ?v_122)) (?v_73 (not ?v_4)) (?v_23 (< (+ (* 40 x2) (* 36 x21) ?v_6) (- 11)))) (let ((?v_142 (not ?v_23)) (?v_34 (< (- (+ (* (- 19) x23) (* 10 x19)) (* 24 x13)) (- 41))) (?v_17 (< (+ (- (* (- 42) x20) (* 8 x5)) (* 6 x19)) 28)) (?v_86 (<= (- (* 20 x0) (* 14 x21)) (- 14)))) (let ((?v_66 (not ?v_86)) (?v_84 (< (- (- (* (- 6) x25) 0) 0) 43))) (let ((?v_129 (not ?v_84)) (?v_49 (< (+ (* (- 15) x3) (* 35 x21) (* 32 x27)) 12)) (?v_106 (<= (- (- (* (- 7) x19) (* 15 x7)) (* 8 x8)) (- 20))) (?v_104 (< (- (- (* (- 24) x10) (* 37 x20)) (* 6 x26)) 40))) (let ((?v_61 (not ?v_104)) (?v_55 (< (+ (- (* 23 x13) (* 7 x9)) (* 23 x29)) (- 6))) (?v_103 (<= (- (+ (* (- 19) x10) x24) (* 14 x29)) (- 8))) (?v_76 (< (+ (* 33 x28) (* 34 x16) ?v_48) (- 41)))) (let ((?v_69 (not ?v_76)) (?v_68 (<= (- (+ (* (- 23) x1) (* 9 x3)) (* 10 x2)) 34)) (?v_115 (not ?v_49)) (?v_78 (<= (+ (- (* 4 x28) (* 23 x16)) (* 3 x18)) (- 16)))) (let ((?v_137 (not ?v_78)) (?v_93 (not ?v_17)) (?v_134 (not ?v_20)) (?v_88 (<= (+ (- (* (- 18) x22) (* 4 x21)) (* 28 x24)) 13))) (let ((?v_82 (not ?v_88)) (?v_121 (< (+ (* 18 x23) (* 13 x2) ?v_72) (- 38)))) (let ((?v_83 (not ?v_121)) (?v_85 (< (+ (* (- 12) x26) ?v_74 (* 34 x17)) (- 20)))) (let ((?v_80 (not ?v_85)) (?v_123 (not ?v_34)) (?v_102 (not ?v_68)) (?v_120 (not ?v_100)) (?v_153 (not ?v_55)) (?v_148 (not ?v_106))) (and (and (and (and (and (and (and (and (and (and (and (and (and (and (and (and (and (and (and (and (and (and (and (and (and (and (and (and (and (and (and (and (and (and (and (and (and (and (and (and (and (and (and (and (and (and (and (and (and (and (and (and (and (and (and (and (and (and (and (and (and (and (and (and (and (and (and (and (and (and (and (and (and (and (and (and (and (and (and (and (and (and (and (and (and (and (and (and (and (and (and (and (and (and (and (and (and (and (and (and (and (and (and (and (and (and (and (and (and (and (and (and (and (and (and (and (and (and (and (and (and (and (and (and (and (and (and (and (and (and (and (and (and (and (and (and (and (and (and (and (and (and (and (and (and (and (and (and (and (and (and (and (and (and (and (and (and (and (and (and (and (and (and (and (and (and (and (and (and (and (and (and (and (and (and (and (and (and (and (and (and (and (and (and (and (and (and (and (and (and (and (and (and (and (and (and (and (and (and (and (and (and (and (and (and (and (and (and (and (and (and (and (and (and (and (and (and (and (and (and (and (and (and (and (and (and (and (and (and (and (and (and (and (and (and (and (and (and (and (and (and (and (and (and (and (and (and (and (and (and (and (and (and (and (and (and (and (and (and (and (and (and (and (and (and (and (and (and (and (and (and (and (and (and (and (and (and (and (and (and (and (and (and (and (and (and (and (and (and (and (and (and (and (and (and (and (and (and (and (and (and (and (and (and (and (and (and (and (and (and (and (and (and (and (and (and (and (and (and (and (and (and (and (and (and (and (and (and (and (and (and (and (and (and (and (and (and (and (and (and (and (and (and (and (and (and (and (and (and (and (and (and (and (and (and (and (and (and (and (or (or P0 ?v_2) ?v_31) (or (or ?v_1 ?v_118) ?v_24)) (or (or P27 ?v_133) ?v_30)) (or (or ?v_100 ?v_20) ?v_14)) (or (or P2 ?v_39) ?v_4)) (or (or P15 ?v_40) ?v_12)) (or (or ?v_1 ?v_99) ?v_21)) (or (or ?v_47 ?v_25) ?v_38)) (or (or ?v_22 ?v_3) ?v_46)) (or (or ?v_41 ?v_4) ?v_5)) (or (or P16 ?v_81) ?v_109)) (or (or ?v_73 ?v_142) ?v_130)) (or (or P14 P15) ?v_53)) (or (or ?v_98 P14) ?v_59)) (or (or ?v_7 ?v_71) ?v_8)) (or (or P1 ?v_10) ?v_11)) (or (or ?v_10 ?v_11) P23)) (or (or ?v_12 ?v_5) ?v_13)) (or (or ?v_11 ?v_26) ?v_19)) (or (or ?v_52 ?v_13) ?v_15)) (or (or ?v_34 P5) ?v_17)) (or (or ?v_15 P24) ?v_13)) (or (or ?v_96 P7) ?v_29)) (or (or ?v_66 ?v_95) ?v_17)) (or (or ?v_18 P5) ?v_19)) (or (or ?v_138 ?v_129) ?v_37)) (or (or ?v_112 ?v_15) ?v_27)) (or (or ?v_1 ?v_35) P20)) (or (or ?v_20 ?v_49) ?v_21)) (or (or ?v_67 ?v_22) ?v_106)) (or (or ?v_23 ?v_24) ?v_25)) (or (or ?v_45 ?v_26) ?v_4)) (or (or ?v_61 ?v_33) ?v_110)) (or (or ?v_27 ?v_63) P23)) (or (or ?v_12 P21) P14)) (or (or ?v_146 ?v_28) ?v_25)) (or (or ?v_136 ?v_30) P7)) (or (or ?v_10 ?v_62) ?v_31)) (or (or ?v_32 ?v_26) ?v_33)) (or (or ?v_34 ?v_135) ?v_35)) (or (or ?v_5 ?v_50) ?v_23)) (or (or ?v_36 ?v_60) ?v_37)) (or (or ?v_38 ?v_92) ?v_39)) (or (or P17 ?v_40) ?v_41)) (or (or P13 ?v_55) ?v_117)) (or (or ?v_13 ?v_19) ?v_42)) (or (or P19 ?v_20) ?v_43)) (or ?v_54 ?v_58)) (or (or ?v_45 ?v_101) ?v_103)) (or (or P20 ?v_47) ?v_69)) (or (or ?v_68 ?v_115) ?v_108)) (or (or ?v_119 ?v_4) ?v_50)) (or (or ?v_64 ?v_57) ?v_75)) (or (or ?v_51 ?v_52) ?v_22)) (or (or ?v_11 P21) ?v_53)) (or (or ?v_24 ?v_35) P15)) (or (or ?v_46 ?v_5) ?v_3)) (or ?v_54 ?v_55)) (or (or ?v_56 ?v_57) ?v_137)) (or (or ?v_58 P25) ?v_93)) (or (or ?v_59 ?v_60) ?v_24)) (or (or ?v_46 ?v_134) ?v_31)) (or (or ?v_61 ?v_7) ?v_87)) (or (or ?v_89 P16) P17)) (or (or ?v_18 P10) ?v_91)) (or (or ?v_64 ?v_65) ?v_79)) (or (or P29 ?v_82) P21)) (or (or ?v_66 ?v_70) ?v_5)) (or (or ?v_68 P19) ?v_69)) (or (or ?v_42 P21) ?v_53)) (or (or ?v_70 ?v_71) ?v_77)) (or (or ?v_83 P23) ?v_73)) (or (or ?v_64 ?v_125) P16)) (or (or ?v_36 ?v_80) P7)) (or (or ?v_52 ?v_32) ?v_55)) (or (or ?v_75 P23) P29)) (or (or ?v_123 ?v_76) ?v_51)) (or (or ?v_18 ?v_77) ?v_78)) (or (or P6 P25) ?v_71)) (or (or ?v_79 ?v_53) ?v_35)) (or (or ?v_80 P29) ?v_81)) (or (or P0 ?v_102) ?v_82)) (or (or ?v_83 ?v_84) ?v_46)) (or (or P23 P3) ?v_69)) (or (or ?v_79 P3) ?v_85)) (or (or ?v_86 ?v_90) ?v_30)) (or (or ?v_87 ?v_2) ?v_40)) (or (or ?v_40 ?v_17) ?v_88)) (or (or ?v_52 ?v_35) ?v_144)) (or (or ?v_89 ?v_90) ?v_91)) (or (or ?v_92 ?v_19) ?v_141)) (or (or ?v_71 ?v_8) ?v_93)) (or (or ?v_94 ?v_95) ?v_96)) (or (or ?v_97 ?v_114) ?v_124)) (or (or P19 ?v_32) ?v_99)) (or (or ?v_90 ?v_120) ?v_23)) (or (or ?v_82 ?v_75) ?v_2)) (or (or ?v_111 ?v_96) ?v_101)) (or (or ?v_61 ?v_56) ?v_24)) (or (or ?v_102 ?v_67) ?v_94)) (or (or ?v_52 P13) ?v_2)) (or (or P7 ?v_64) ?v_35)) (or (or ?v_103 P7) ?v_104)) (or (or ?v_105 ?v_106) ?v_27)) (or (or ?v_45 ?v_81) ?v_39)) (or (or P20 ?v_107) ?v_95)) (or (or ?v_29 ?v_30) ?v_70)) (or (or ?v_155 P12) ?v_44)) (or (or ?v_20 ?v_105) ?v_42)) (or (or ?v_67 ?v_87) ?v_12)) (or (or ?v_82 ?v_33) ?v_56)) (or (or ?v_104 ?v_101) ?v_51)) (or (or ?v_19 ?v_84) ?v_55)) (or (or ?v_96 ?v_108) ?v_68)) (or (or P19 ?v_24) ?v_92)) (or (or ?v_1 ?v_104) ?v_49)) (or (or ?v_109 ?v_107) ?v_44)) (or (or ?v_49 ?v_34) ?v_18)) (or (or ?v_64 ?v_116) ?v_49)) (or (or ?v_97 ?v_111) ?v_112)) (or (or ?v_113 ?v_86) ?v_114)) (or (or ?v_115 ?v_24) ?v_153)) (or (or ?v_116 ?v_145) ?v_62)) (or (or P22 ?v_20) ?v_46)) (or (or ?v_118 ?v_86) ?v_119)) (or (or ?v_39 ?v_120) P26)) (or (or ?v_26 ?v_65) ?v_80)) (or (or ?v_85 ?v_110) ?v_90)) (or (or ?v_17 ?v_14) ?v_5)) (or (or ?v_121 ?v_33) ?v_122)) (or (or ?v_79 ?v_40) ?v_34)) (or (or P14 P21) ?v_43)) (or (or ?v_17 ?v_103) ?v_12)) (or (or ?v_76 ?v_88) ?v_127)) (or (or P28 ?v_78) ?v_33)) (or (or ?v_7 ?v_119) P19)) (or (or ?v_21 P11) ?v_19)) (or (or ?v_103 ?v_58) ?v_41)) (or (or ?v_119 ?v_76) ?v_19)) (or (or ?v_113 ?v_31) P3)) (or (or ?v_59 ?v_123) ?v_115)) (or (or ?v_69 ?v_107) ?v_86)) (or (or ?v_124 ?v_128) ?v_70)) (or (or ?v_11 ?v_27) ?v_41)) (or (or ?v_31 P26) ?v_78)) (or (or ?v_125 ?v_99) ?v_100)) (or (or ?v_53 ?v_106) ?v_77)) (or (or ?v_110 ?v_86) ?v_121)) (or (or ?v_131 ?v_126) ?v_52)) (or (or P23 ?v_101) ?v_59)) (or (or ?v_127 ?v_15) ?v_47)) (or (or ?v_104 ?v_66) ?v_147)) (or (or ?v_128 ?v_55) ?v_107)) (or (or ?v_53 ?v_5) ?v_91)) (or (or ?v_73 ?v_129) ?v_94)) (or (or ?v_27 P20) ?v_118)) (or (or P20 ?v_105) ?v_98)) (or (or ?v_130 ?v_87) ?v_131)) (or (or ?v_122 ?v_47) ?v_82)) (or (or P12 P20) ?v_95)) (or (or ?v_12 P3) ?v_132)) (or (or ?v_120 ?v_53) ?v_10)) (or (or ?v_125 ?v_156) ?v_19)) (or (or ?v_148 P4) ?v_18)) (or (or P2 ?v_123) ?v_60)) (or (or ?v_41 P18) ?v_31)) (or (or ?v_120 ?v_14) ?v_150)) (or (or P9 ?v_60) ?v_76)) (or (or ?v_133 ?v_88) ?v_15)) (or (or P6 ?v_98) P18)) (or (or ?v_112 ?v_134) ?v_32)) (or (or ?v_101 P16) ?v_25)) (or (or ?v_89 ?v_5) ?v_96)) (or (or ?v_82 P13) P22)) (or (or ?v_118 P10) ?v_10)) (or (or ?v_106 ?v_131) ?v_15)) (or (or ?v_89 ?v_96) ?v_128)) (or (or ?v_120 ?v_62) ?v_71)) (or (or ?v_135 ?v_45) ?v_113)) (or (or ?v_5 P22) ?v_82)) (or (or ?v_111 ?v_52) ?v_136)) (or (or ?v_61 ?v_90) ?v_82)) (or (or P20 ?v_13) ?v_137)) (or (or ?v_61 ?v_61) ?v_79)) (or (or ?v_5 ?v_17) ?v_84)) (or (or ?v_124 ?v_124) ?v_14)) (or (or ?v_110 ?v_138) ?v_58)) (or (or ?v_23 ?v_139) ?v_70)) (or (or ?v_50 P19) ?v_114)) (or (or ?v_15 ?v_36) ?v_100)) (or (or P12 ?v_2) ?v_89)) (or (or ?v_39 ?v_81) ?v_35)) (or (or ?v_114 ?v_126) ?v_53)) (or (or ?v_140 ?v_98) ?v_141)) (or (or ?v_139 ?v_3) ?v_37)) (or (or P8 ?v_18) ?v_142)) (or (or ?v_41 P4) ?v_143)) (or (or ?v_33 ?v_43) ?v_22)) (or (or ?v_20 P10) ?v_127)) (or (or P25 ?v_131) ?v_45)) (or (or ?v_4 ?v_93) P24)) (or (or ?v_114 P11) P5)) (or (or ?v_23 P19) ?v_87)) (or (or ?v_135 ?v_59) ?v_93)) (or (or ?v_85 ?v_47) P28)) (or (or ?v_68 ?v_143) ?v_17)) (or (or ?v_71 ?v_97) ?v_104)) (or (or ?v_58 ?v_60) ?v_62)) (or (or ?v_144 P8) ?v_32)) (or (or P20 ?v_133) ?v_121)) (or (or P17 ?v_76) ?v_42)) (or (or ?v_134 ?v_145) P3)) (or (or P14 ?v_94) ?v_60)) (or (or ?v_90 ?v_41) P15)) (or (or ?v_125 ?v_57) P26)) (or (or ?v_4 ?v_137) P28)) (or (or ?v_57 ?v_63) ?v_22)) (or (or ?v_27 ?v_80) ?v_114)) (or (or ?v_33 ?v_124) ?v_41)) (or (or ?v_42 P10) ?v_51)) (or (or ?v_139 ?v_42) ?v_114)) (or (or ?v_49 ?v_146) ?v_79)) (or (or ?v_39 ?v_71) ?v_147)) (or (or ?v_135 ?v_115) ?v_148)) (or (or ?v_110 P19) ?v_60)) (or (or ?v_146 ?v_102) ?v_32)) (or (or ?v_70 P16) ?v_21)) (or (or P7 P22) ?v_50)) (or (or ?v_19 ?v_149) ?v_83)) (or (or P25 ?v_58) ?v_43)) (or (or ?v_4 ?v_61) ?v_92)) (or (or ?v_45 ?v_62) ?v_99)) (or (or P23 ?v_69) ?v_106)) (or (or ?v_149 ?v_25) P16)) (or (or ?v_150 ?v_12) ?v_59)) (or (or ?v_70 ?v_76) ?v_100)) (or (or ?v_63 ?v_141) ?v_64)) (or (or ?v_91 ?v_66) ?v_104)) (or (or ?v_110 P9) P6)) (or (or ?v_132 ?v_125) ?v_82)) (or (or ?v_26 ?v_122) ?v_82)) (or (or ?v_18 ?v_68) ?v_140)) (or (or ?v_14 ?v_138) ?v_96)) (or (or P29 ?v_117) ?v_25)) (or (or ?v_30 ?v_69) P10)) (or (or ?v_43 P1) ?v_154)) (or (or ?v_144 ?v_65) ?v_23)) (or (or ?v_84 ?v_68) P2)) (or (or ?v_123 ?v_119) ?v_32)) (or (or P28 ?v_122) P2)) (or (or ?v_148 ?v_1) ?v_115)) (or (or ?v_104 P6) ?v_98)) (or (or ?v_17 ?v_136) ?v_35)) (or (or P24 ?v_103) ?v_66)) (or (or ?v_102 ?v_120) ?v_122)) (or (or ?v_151 ?v_47) P4)) (or (or ?v_21 ?v_87) ?v_103)) (or (or ?v_129 ?v_129) ?v_133)) (or (or P29 P7) ?v_152)) (or (or ?v_112 ?v_29) ?v_106)) (or (or P29 P2) ?v_61)) (or (or ?v_8 P23) ?v_45)) (or (or ?v_38 P20) ?v_31)) (or (or P19 ?v_28) ?v_34)) (or (or ?v_112 ?v_116) ?v_106)) (or (or P0 ?v_153) ?v_120)) (or (or ?v_153 ?v_154) ?v_51)) (or (or P28 P28) ?v_70)) (or (or ?v_135 ?v_96) P22)) (or (or ?v_139 ?v_155) ?v_45)) (or (or ?v_87 P5) P10)) (or (or ?v_89 ?v_12) ?v_103)) (or (or ?v_45 ?v_88) P3)) (or (or ?v_85 ?v_53) ?v_114)) (or (or ?v_128 P5) P21)) (or (or ?v_85 P17) P6)) (or (or ?v_87 ?v_135) ?v_33)) (or (or P9 ?v_14) ?v_114)) (or (or ?v_61 ?v_23) ?v_78)) (or (or P25 ?v_46) ?v_75)) (or (or ?v_98 ?v_43) ?v_80)) (or (or ?v_145 ?v_90) ?v_132)) (or (or ?v_53 ?v_100) ?v_28)) (or (or ?v_41 ?v_121) ?v_124)) (or (or ?v_59 ?v_52) ?v_131)) (or (or ?v_69 ?v_63) ?v_135)) (or (or ?v_115 P29) ?v_75)) (or (or ?v_11 ?v_142) P22)) (or (or ?v_15 P25) ?v_89)) (or (or ?v_150 ?v_57) P14)) (or (or ?v_55 ?v_51) ?v_27)) (or (or ?v_126 P10) ?v_112)) (or (or ?v_80 ?v_92) ?v_69)) (or (or ?v_133 ?v_12) P27)) (or (or ?v_84 P11) ?v_134)) (or (or ?v_37 ?v_123) ?v_76)) (or (or ?v_77 ?v_61) ?v_144)) (or (or ?v_152 ?v_43) ?v_113)) (or (or ?v_140 ?v_149) ?v_80)) (or (or ?v_45 P25) ?v_140)) (or (or ?v_149 ?v_75) ?v_17)) (or (or ?v_129 ?v_33) P15)) (or (or ?v_131 ?v_135) ?v_109)) (or (or ?v_5 ?v_90) ?v_138)) (or (or ?v_58 P22) ?v_81)) (or (or ?v_24 ?v_11) ?v_111)) (or (or ?v_26 ?v_91) ?v_1)) (or (or ?v_45 ?v_100) ?v_87)) (or (or ?v_139 ?v_50) ?v_42)) (or (or P19 ?v_45) ?v_62)) (or (or P14 ?v_121) ?v_110)) (or (or ?v_88 ?v_119) ?v_96)) (or (or ?v_13 ?v_10) P4)) (or (or P27 ?v_50) ?v_40)) (or (or ?v_47 ?v_110) ?v_42)) (or (or ?v_103 ?v_21) ?v_14)) (or (or ?v_135 ?v_28) ?v_65)) (or (or ?v_125 ?v_38) ?v_60)) (or (or ?v_79 ?v_36) ?v_128)) (or (or ?v_145 ?v_39) ?v_103)) (or (or ?v_64 ?v_29) ?v_141)) (or (or ?v_15 ?v_82) ?v_14)) (or (or P5 ?v_5) ?v_102)) (or (or P20 P10) P7)) (or (or ?v_5 ?v_99) ?v_35)) (or (or ?v_117 ?v_47) ?v_111)) (or (or ?v_103 ?v_156) ?v_30)) (or (or P12 ?v_94) ?v_31)) (or (or ?v_134 ?v_141) P12)) (or (or ?v_23 ?v_71) ?v_155)) (or (or ?v_118 ?v_62) ?v_141)) (or (or ?v_14 ?v_77) ?v_12)) (or (or ?v_23 ?v_51) ?v_53)) (or (or P27 ?v_112) ?v_141)) (or (or P18 ?v_148) ?v_132)) (or (or ?v_149 P5) ?v_139)) (or (or ?v_153 P18) ?v_53)) (or (or ?v_30 ?v_105) ?v_129)) (or (or ?v_21 ?v_23) ?v_110)) (or (or ?v_92 ?v_7) ?v_62)) (or (or ?v_39 ?v_83) ?v_130)) (or (or ?v_109 ?v_61) P15)) (or (or ?v_146 ?v_87) ?v_125)) (or (or ?v_142 ?v_144) P11)) (or (or ?v_90 ?v_110) P8)) (or (or ?v_97 ?v_51) ?v_57)) (or (or ?v_41 P20) ?v_110)) (or (or P6 ?v_149) P26)) (or (or ?v_2 ?v_125) P24)) (or (or ?v_132 ?v_155) P8)) (or (or ?v_100 ?v_141) ?v_115)) (or (or ?v_85 ?v_34) ?v_2)) (or (or ?v_109 ?v_46) ?v_34)) (or (or ?v_38 ?v_132) ?v_11)) (or (or ?v_71 ?v_53) P4)) (or (or ?v_78 ?v_68) ?v_29)) (or (or ?v_25 ?v_46) P6)) (or (or ?v_134 ?v_132) (not ?v_103))) (or (or ?v_146 ?v_155) ?v_156)) (or (or ?v_27 ?v_105) ?v_104)))))))))))))))))))))))))
(check-sat)
(exit)
